c Grafo no formato DIMACS 
p edge 60 150 
e 1 57 
e 1 53 
e 1 50 
e 1 41 
e 1 10 
e 1 3 
e 2 54 
e 2 32 
e 2 29 
e 2 10 
e 2 5 
e 3 41 
e 3 6 
e 4 50 
e 4 44 
e 4 38 
e 4 23 
e 4 9 
e 4 6 
e 5 53 
e 5 45 
e 5 37 
e 5 13 
e 6 58 
e 6 49 
e 6 47 
e 6 43 
e 6 39 
e 6 31 
e 6 9 
e 6 7 
e 7 58 
e 7 49 
e 7 25 
e 7 15 
e 8 58 
e 8 52 
e 8 47 
e 9 47 
e 10 58 
e 10 35 
e 10 31 
e 10 21 
e 10 11 
e 11 53 
e 11 49 
e 11 48 
e 11 45 
e 11 41 
e 12 57 
e 12 46 
e 12 31 
e 13 44 
e 13 36 
e 15 52 
e 15 40 
e 15 29 
e 16 58 
e 16 45 
e 17 58 
e 17 45 
e 17 39 
e 17 38 
e 17 22 
e 18 56 
e 18 50 
e 18 48 
e 18 47 
e 18 37 
e 18 29 
e 18 28 
e 19 54 
e 19 37 
e 19 36 
e 19 34 
e 20 50 
e 20 49 
e 20 29 
e 21 57 
e 21 48 
e 21 45 
e 21 34 
e 21 32 
e 21 24 
e 21 23 
e 23 54 
e 23 52 
e 23 31 
e 23 26 
e 24 59 
e 24 40 
e 24 37 
e 24 35 
e 24 25 
e 25 60 
e 25 53 
e 25 52 
e 25 47 
e 25 44 
e 26 55 
e 26 43 
e 26 41 
e 26 39 
e 27 47 
e 27 45 
e 28 59 
e 28 56 
e 28 54 
e 28 43 
e 28 33 
e 28 29 
e 30 57 
e 30 50 
e 30 36 
e 31 50 
e 31 49 
e 31 39 
e 32 56 
e 32 47 
e 33 60 
e 34 53 
e 34 49 
e 34 47 
e 34 39 
e 34 35 
e 35 55 
e 36 57 
e 36 53 
e 37 54 
e 37 45 
e 37 38 
e 38 48 
e 38 40 
e 40 60 
e 40 58 
e 41 59 
e 43 52 
e 43 48 
e 44 49 
e 44 46 
e 45 57 
e 47 56 
e 48 54 
e 49 57 
e 50 60 
e 50 58 
e 50 55 
e 50 54 
e 54 55 
e 56 57 
